datasets/30l1i.nl
g3 3 1 0	# problem 30l1i
 156 74 1 0 31	# vars, constraints, objectives, ranges, eqns
 0 1	# nonlinear constraints, objectives
 0 0	# network constraints: nonlinear, linear
 0 50 0	# nonlinear vars in constraints, objectives, both
 0 0 0 1	# linear network variables; functions; arith, flags
 0 106 0 0 50	# discrete variables: binary, integer, nonlinear (b,c,o)
 604 146	# nonzeros in Jacobian, gradients
 0 0	# max name lengths: constraints, variables
 0 0 0 0 0	# common exprs: b,c,o,c1,o1
b
2 0
2 0
2 0
2 0
2 0
2 0
2 0
2 0
2 0
2 0
2 0
2 0
2 0
2 0
2 0
2 0
2 0
2 0
2 0
2 0
2 0
2 0
2 0
2 0
2 0
2 0
2 0
2 0
2 0
2 0
2 0
2 0
2 0
2 0
2 0
2 0
2 0
2 0
2 0
2 0
2 0
2 0
2 0
2 0
2 0
2 0
2 0
2 0
2 0
2 0
0 0 40
0 0 40
0 0 40
0 0 40
0 0 40
0 0 40
0 0 40
0 0 40
0 0 50
0 0 50
0 0 50
0 0 50
0 0 50
0 0 50
0 0 50
0 0 50
0 0 30
0 0 30
0 0 30
0 0 30
0 0 30
0 0 30
0 0 30
0 0 30
0 0 40
0 0 40
0 0 40
0 0 40
0 0 40
0 0 40
0 0 40
0 0 40
0 0 50
0 0 50
0 0 50
0 0 50
0 0 50
0 0 50
0 0 50
0 0 50
0 0 30
0 0 30
0 0 30
0 0 30
0 0 30
0 0 30
0 0 30
0 0 30
0 0 67
0 0 62
0 0 63
0 0 54
0 0 67
0 0 72
0 0 73
0 0 85
0 0 67
0 0 67
0 0 67
0 0 67
0 0 67
0 0 62
0 0 62
0 0 62
0 0 62
0 0 62
0 0 63
0 0 63
0 0 63
0 0 63
0 0 63
0 0 54
0 0 54
0 0 54
0 0 54
0 0 54
0 0 67
0 0 67
0 0 67
0 0 67
0 0 67
0 0 72
0 0 72
0 0 72
0 0 72
0 0 72
0 0 73
0 0 73
0 0 73
0 0 73
0 0 73
0 0 85
0 0 85
0 0 85
0 0 85
0 0 85
0 0 40
0 0 60
0 0 70
0 0 20
0 0 50
0 0 50
0 0 60
0 0 40
0 0 60
0 0 50
r
4 40
4 50
4 30
4 40
4 50
4 30
4 160
4 0
4 0
4 0
4 0
4 0
4 0
4 0
4 0
4 0
4 0
4 0
4 0
4 0
4 -40
4 -60
4 -70
4 -20
4 -50
4 -50
4 -60
4 -40
4 -60
4 -50
4 100
1 67
1 62
1 63
1 54
1 67
1 72
1 73
1 85
1 96
1 94
1 89
1 100
1 175
1 40
1 60
1 70
1 20
1 50
1 50
1 60
1 40
1 60
1 50
1 40
1 50
1 30
1 40
1 50
1 30
1 160
1 67
1 62
1 63
1 54
1 67
1 72
1 73
1 85
1 96
1 94
1 89
1 100
1 175
C0
n0
C1
n0
C2
n0
C3
n0
C4
n0
C5
n0
C6
n0
C7
n0
C8
n0
C9
n0
C10
n0
C11
n0
C12
n0
C13
n0
C14
n0
C15
n0
C16
n0
C17
n0
C18
n0
C19
n0
C20
n0
C21
n0
C22
n0
C23
n0
C24
n0
C25
n0
C26
n0
C27
n0
C28
n0
C29
n0
C30
n0
C31
n0
C32
n0
C33
n0
C34
n0
C35
n0
C36
n0
C37
n0
C38
n0
C39
n0
C40
n0
C41
n0
C42
n0
C43
n0
C44
n0
C45
n0
C46
n0
C47
n0
C48
n0
C49
n0
C50
n0
C51
n0
C52
n0
C53
n0
C54
n0
C55
n0
C56
n0
C57
n0
C58
n0
C59
n0
C60
n0
C61
n0
C62
n0
C63
n0
C64
n0
C65
n0
C66
n0
C67
n0
C68
n0
C69
n0
C70
n0
C71
n0
C72
n0
C73
n0
O0 0
o54
10
o2
n10000
o5
o16
o3
o54
5
v0
v10
v20
v30
v40
n-40
n2
o2
n10000
o5
o16
o3
o54
5
v1
v11
v21
v31
v41
n-60
n2
o2
n10000
o5
o16
o3
o54
5
v2
v12
v22
v32
v42
n-70
n2
o2
n10000
o5
o16
o3
o54
5
v3
v13
v23
v33
v43
n-20
n2
o2
n10000
o5
o16
o3
o54
5
v4
v14
v24
v34
v44
n-50
n2
o2
n10000
o5
o16
o3
o54
5
v5
v15
v25
v35
v45
n-50
n2
o2
n10000
o5
o16
o3
o54
5
v6
v16
v26
v36
v46
n-60
n2
o2
n10000
o5
o16
o3
o54
5
v7
v17
v27
v37
v47
n-40
n2
o2
n10000
o5
o16
o3
o54
5
v8
v18
v28
v38
v48
n-60
n2
o2
n10000
o5
o16
o3
o54
5
v9
v19
v29
v39
v49
n-50
n2
k155
4
8
12
16
20
24
28
32
36
40
44
48
52
56
60
64
68
72
76
80
84
88
92
96
100
104
108
112
116
120
124
128
132
136
140
144
148
152
156
160
164
168
172
176
180
184
188
192
196
200
204
208
212
216
220
224
228
232
236
240
244
248
252
256
260
264
268
272
276
280
284
288
292
296
300
304
308
312
316
320
324
328
332
336
340
344
348
352
356
360
364
368
372
376
380
384
388
392
396
400
404
408
412
416
420
424
428
432
436
440
444
448
452
456
460
464
468
472
476
480
484
488
492
496
500
504
508
512
516
520
524
528
532
536
540
544
548
552
556
560
564
568
572
576
580
584
586
588
590
592
594
596
598
600
602
J0 8
50 1
51 1
52 1
53 1
54 1
55 1
56 1
57 1
J1 8
58 1
59 1
60 1
61 1
62 1
63 1
64 1
65 1
J2 8
66 1
67 1
68 1
69 1
70 1
71 1
72 1
73 1
J3 8
74 1
75 1
76 1
77 1
78 1
79 1
80 1
81 1
J4 8
82 1
83 1
84 1
85 1
86 1
87 1
88 1
89 1
J5 8
90 1
91 1
92 1
93 1
94 1
95 1
96 1
97 1
J6 8
98 1
99 1
100 1
101 1
102 1
103 1
104 1
105 1
J7 12
50 -1
58 -1
66 -1
74 -1
82 -1
90 -1
98 -1
106 1
107 1
108 1
109 1
110 1
J8 12
51 -1
59 -1
67 -1
75 -1
83 -1
91 -1
99 -1
111 1
112 1
113 1
114 1
115 1
J9 12
52 -1
60 -1
68 -1
76 -1
84 -1
92 -1
100 -1
116 1
117 1
118 1
119 1
120 1
J10 12
53 -1
61 -1
69 -1
77 -1
85 -1
93 -1
101 -1
121 1
122 1
123 1
124 1
125 1
J11 12
54 -1
62 -1
70 -1
78 -1
86 -1
94 -1
102 -1
126 1
127 1
128 1
129 1
130 1
J12 12
55 -1
63 -1
71 -1
79 -1
87 -1
95 -1
103 -1
131 1
132 1
133 1
134 1
135 1
J13 12
56 -1
64 -1
72 -1
80 -1
88 -1
96 -1
104 -1
136 1
137 1
138 1
139 1
140 1
J14 12
57 -1
65 -1
73 -1
81 -1
89 -1
97 -1
105 -1
141 1
142 1
143 1
144 1
145 1
J15 18
0 1
1 1
2 1
3 1
4 1
5 1
6 1
7 1
8 1
9 1
106 -1
111 -1
116 -1
121 -1
126 -1
131 -1
136 -1
141 -1
J16 18
10 1
11 1
12 1
13 1
14 1
15 1
16 1
17 1
18 1
19 1
107 -1
112 -1
117 -1
122 -1
127 -1
132 -1
137 -1
142 -1
J17 18
20 1
21 1
22 1
23 1
24 1
25 1
26 1
27 1
28 1
29 1
108 -1
113 -1
118 -1
123 -1
128 -1
133 -1
138 -1
143 -1
J18 18
30 1
31 1
32 1
33 1
34 1
35 1
36 1
37 1
38 1
39 1
109 -1
114 -1
119 -1
124 -1
129 -1
134 -1
139 -1
144 -1
J19 18
40 1
41 1
42 1
43 1
44 1
45 1
46 1
47 1
48 1
49 1
110 -1
115 -1
120 -1
125 -1
130 -1
135 -1
140 -1
145 -1
J20 6
0 -1
10 -1
20 -1
30 -1
40 -1
146 -1
J21 6
1 -1
11 -1
21 -1
31 -1
41 -1
147 -1
J22 6
2 -1
12 -1
22 -1
32 -1
42 -1
148 -1
J23 6
3 -1
13 -1
23 -1
33 -1
43 -1
149 -1
J24 6
4 -1
14 -1
24 -1
34 -1
44 -1
150 -1
J25 6
5 -1
15 -1
25 -1
35 -1
45 -1
151 -1
J26 6
6 -1
16 -1
26 -1
36 -1
46 -1
152 -1
J27 6
7 -1
17 -1
27 -1
37 -1
47 -1
153 -1
J28 6
8 -1
18 -1
28 -1
38 -1
48 -1
154 -1
J29 6
9 -1
19 -1
29 -1
39 -1
49 -1
155 -1
J30 10
146 1
147 1
148 1
149 1
150 1
151 1
152 1
153 1
154 1
155 1
J31 7
50 1
58 1
66 1
74 1
82 1
90 1
98 1
J32 7
51 1
59 1
67 1
75 1
83 1
91 1
99 1
J33 7
52 1
60 1
68 1
76 1
84 1
92 1
100 1
J34 7
53 1
61 1
69 1
77 1
85 1
93 1
101 1
J35 7
54 1
62 1
70 1
78 1
86 1
94 1
102 1
J36 7
55 1
63 1
71 1
79 1
87 1
95 1
103 1
J37 7
56 1
64 1
72 1
80 1
88 1
96 1
104 1
J38 7
57 1
65 1
73 1
81 1
89 1
97 1
105 1
J39 8
106 1
111 1
116 1
121 1
126 1
131 1
136 1
141 1
J40 8
107 1
112 1
117 1
122 1
127 1
132 1
137 1
142 1
J41 8
108 1
113 1
118 1
123 1
128 1
133 1
138 1
143 1
J42 8
109 1
114 1
119 1
124 1
129 1
134 1
139 1
144 1
J43 8
110 1
115 1
120 1
125 1
130 1
135 1
140 1
145 1
J44 5
0 1
10 1
20 1
30 1
40 1
J45 5
1 1
11 1
21 1
31 1
41 1
J46 5
2 1
12 1
22 1
32 1
42 1
J47 5
3 1
13 1
23 1
33 1
43 1
J48 5
4 1
14 1
24 1
34 1
44 1
J49 5
5 1
15 1
25 1
35 1
45 1
J50 5
6 1
16 1
26 1
36 1
46 1
J51 5
7 1
17 1
27 1
37 1
47 1
J52 5
8 1
18 1
28 1
38 1
48 1
J53 5
9 1
19 1
29 1
39 1
49 1
J54 8
50 1
51 1
52 1
53 1
54 1
55 1
56 1
57 1
J55 8
58 1
59 1
60 1
61 1
62 1
63 1
64 1
65 1
J56 8
66 1
67 1
68 1
69 1
70 1
71 1
72 1
73 1
J57 8
74 1
75 1
76 1
77 1
78 1
79 1
80 1
81 1
J58 8
82 1
83 1
84 1
85 1
86 1
87 1
88 1
89 1
J59 8
90 1
91 1
92 1
93 1
94 1
95 1
96 1
97 1
J60 8
98 1
99 1
100 1
101 1
102 1
103 1
104 1
105 1
J61 5
106 1
107 1
108 1
109 1
110 1
J62 5
111 1
112 1
113 1
114 1
115 1
J63 5
116 1
117 1
118 1
119 1
120 1
J64 5
121 1
122 1
123 1
124 1
125 1
J65 5
126 1
127 1
128 1
129 1
130 1
J66 5
131 1
132 1
133 1
134 1
135 1
J67 5
136 1
137 1
138 1
139 1
140 1
J68 5
141 1
142 1
143 1
144 1
145 1
J69 10
0 1
1 1
2 1
3 1
4 1
5 1
6 1
7 1
8 1
9 1
J70 10
10 1
11 1
12 1
13 1
14 1
15 1
16 1
17 1
18 1
19 1
J71 10
20 1
21 1
22 1
23 1
24 1
25 1
26 1
27 1
28 1
29 1
J72 10
30 1
31 1
32 1
33 1
34 1
35 1
36 1
37 1
38 1
39 1
J73 10
40 1
41 1
42 1
43 1
44 1
45 1
46 1
47 1
48 1
49 1
G0 146
0 229
1 152
2 783
3 829
4 771
5 809
6 515
7 346
8 935
9 538
10 302
11 283
12 222
13 500
14 866
15 393
16 379
17 936
18 983
19 709
20 297
21 610
22 851
23 243
24 708
25 300
26 223
27 286
28 425
29 563
30 448
31 870
32 759
33 863
34 502
35 445
36 610
37 246
38 247
39 963
40 810
41 919
42 588
43 739
44 650
45 437
46 971
47 740
48 878
49 572
50 560
51 790
52 674
53 963
54 842
55 340
56 663
57 195
58 999
59 833
60 584
61 506
62 330
63 848
64 754
65 270
66 640
67 135
68 624
69 259
70 938
71 798
72 342
73 185
74 895
75 677
76 781
77 656
78 673
79 745
80 895
81 127
82 719
83 655
84 439
85 897
86 430
87 739
88 605
89 447
90 572
91 330
92 289
93 324
94 484
95 476
96 382
97 732
98 727
99 844
100 358
101 458
102 809
103 555
104 510
105 748
106 417
107 776
108 324
109 918
110 333
111 783
112 763
113 926
114 473
115 771
116 707
117 571
118 332
119 791
120 212
121 929
122 596
123 541
124 663
125 367
126 609
127 906
128 485
129 486
130 212
131 712
132 724
133 180
134 798
135 212
136 101
137 741
138 319
139 665
140 954
141 835
142 324
143 484
144 502
145 737
