datasets/30l1i.sol
 
couenne: Optimal

Options
3
3
1
0
74
0
156
156
13
60
0
0
0
0
0
0
0
0
14.999999999999993
0
70
0
0
0
0
0
0
0
0
0
0
7.000000000000002
0
0
59.99999999999999
22.000000000000007
0
0
0
0
0
0
0
0
0
2
53
0
0
0
0
0
21
47.00000000000001
0
0
0
30
0
0
0
0
0
39.99999999999999
0
0
0
0
0
0
5.000000000000003
0
0
45
0
30
0
0
0
0
0
0
0
0
0
0
0
0
0
40
0
0
0
0
50
0
0
0
0
21.999999999999993
0
0
0
0
8.000000000000007
0
0
0
63
0
0
32.00000000000001
65
0
0
0
0
0
0
0
0
0
52.00000000000001
0
0
0
17
0
46
0
0
0
0
0
0
0
0
3.000000000000005
52
0
0
72
0
0
73
0
0
0
0
0
85
0
0
0
12.000000000000007
0
0
12.999999999999993
28.999999999999996
2.999999999999994
0
16
7
20
objno 0 3
